(set-info :category "industrial")
(set-info :status sat)
(declare-fun x01 () (_ BitVec 8))
(declare-fun x02 () (_ BitVec 8))
(declare-fun x03 () (_ BitVec 8))
(declare-fun x04 () (_ BitVec 8))
(declare-fun x06 () (_ BitVec 8))
(declare-fun x07 () (_ BitVec 8))
(declare-fun x08 () (_ BitVec 8))
(declare-fun x10 () (_ BitVec 8))
(declare-fun x13 () (_ BitVec 8))
(declare-fun x14 () (_ BitVec 8))
(declare-fun x15 () (_ BitVec 8))
(declare-fun x17 () (_ BitVec 8))
(declare-fun x18 () (_ BitVec 8))
(declare-fun x20 () (_ BitVec 8))
(declare-fun x22 () (_ BitVec 8))
(declare-fun x23 () (_ BitVec 8))
(declare-fun x26 () (_ BitVec 8))
(declare-fun x30 () (_ BitVec 8))
(declare-fun x33 () (_ BitVec 8))
(declare-fun x35 () (_ BitVec 8))
(declare-fun x37 () (_ BitVec 8))
(declare-fun x38 () (_ BitVec 8))
(declare-fun x41 () (_ BitVec 8))
(declare-fun x42 () (_ BitVec 8))
(declare-fun x43 () (_ BitVec 8))
(declare-fun x45 () (_ BitVec 8))
(declare-fun x46 () (_ BitVec 8))
(declare-fun x48 () (_ BitVec 8))
(declare-fun x52 () (_ BitVec 8))
(declare-fun x53 () (_ BitVec 8))
(declare-fun x56 () (_ BitVec 8))
(declare-fun x58 () (_ BitVec 8))
(declare-fun x60 () (_ BitVec 8))
(declare-fun x61 () (_ BitVec 8))
(declare-fun x63 () (_ BitVec 8))
(declare-fun x64 () (_ BitVec 8))
(declare-fun x67 () (_ BitVec 8))
(declare-fun x68 () (_ BitVec 8))
(declare-fun x70 () (_ BitVec 8))
(declare-fun x72 () (_ BitVec 8))
(declare-fun x74 () (_ BitVec 8))
(declare-fun x75 () (_ BitVec 8))
(declare-fun x77 () (_ BitVec 8))
(declare-fun x78 () (_ BitVec 8))
(declare-fun x82 () (_ BitVec 8))
(declare-fun x85 () (_ BitVec 8))
(declare-fun x86 () (_ BitVec 8))
(declare-fun x87 () (_ BitVec 8))
(assert (bvult x01 (_ bv9 8)))
(assert (bvult x02 (_ bv9 8)))
(assert (bvult x03 (_ bv9 8)))
(assert (bvult x04 (_ bv9 8)))
(assert (bvult x06 (_ bv9 8)))
(assert (bvult x07 (_ bv9 8)))
(assert (bvult x08 (_ bv9 8)))
(assert (bvult x10 (_ bv9 8)))
(assert (bvult x13 (_ bv9 8)))
(assert (bvult x14 (_ bv9 8)))
(assert (bvult x15 (_ bv9 8)))
(assert (bvult x17 (_ bv9 8)))
(assert (bvult x18 (_ bv9 8)))
(assert (bvult x20 (_ bv9 8)))
(assert (bvult x22 (_ bv9 8)))
(assert (bvult x23 (_ bv9 8)))
(assert (bvult x26 (_ bv9 8)))
(assert (bvult x30 (_ bv9 8)))
(assert (bvult x33 (_ bv9 8)))
(assert (bvult x35 (_ bv9 8)))
(assert (bvult x37 (_ bv9 8)))
(assert (bvult x38 (_ bv9 8)))
(assert (bvult x41 (_ bv9 8)))
(assert (bvult x42 (_ bv9 8)))
(assert (bvult x43 (_ bv9 8)))
(assert (bvult x45 (_ bv9 8)))
(assert (bvult x46 (_ bv9 8)))
(assert (bvult x48 (_ bv9 8)))
(assert (bvult x52 (_ bv9 8)))
(assert (bvult x53 (_ bv9 8)))
(assert (bvult x56 (_ bv9 8)))
(assert (bvult x58 (_ bv9 8)))
(assert (bvult x60 (_ bv9 8)))
(assert (bvult x61 (_ bv9 8)))
(assert (bvult x63 (_ bv9 8)))
(assert (bvult x64 (_ bv9 8)))
(assert (bvult x67 (_ bv9 8)))
(assert (bvult x68 (_ bv9 8)))
(assert (bvult x70 (_ bv9 8)))
(assert (bvult x72 (_ bv9 8)))
(assert (bvult x74 (_ bv9 8)))
(assert (bvult x75 (_ bv9 8)))
(assert (bvult x77 (_ bv9 8)))
(assert (bvult x78 (_ bv9 8)))
(assert (bvult x82 (_ bv9 8)))
(assert (bvult x85 (_ bv9 8)))
(assert (bvult x86 (_ bv9 8)))
(assert (bvult x87 (_ bv9 8)))
(assert (not (= (_ bv8 8) x01)))
(assert (not (= (_ bv8 8) x02)))
(assert (not (= (_ bv8 8) x03)))
(assert (not (= (_ bv8 8) x04)))
(assert (not (= (_ bv8 8) (_ bv2 8))))
(assert (not (= (_ bv8 8) x06)))
(assert (not (= (_ bv8 8) x07)))
(assert (not (= (_ bv8 8) x08)))
(assert (not (= x01 x02)))
(assert (not (= x01 x03)))
(assert (not (= x01 x04)))
(assert (not (= x01 (_ bv2 8))))
(assert (not (= x01 x06)))
(assert (not (= x01 x07)))
(assert (not (= x01 x08)))
(assert (not (= x02 x03)))
(assert (not (= x02 x04)))
(assert (not (= x02 (_ bv2 8))))
(assert (not (= x02 x06)))
(assert (not (= x02 x07)))
(assert (not (= x02 x08)))
(assert (not (= x03 x04)))
(assert (not (= x03 (_ bv2 8))))
(assert (not (= x03 x06)))
(assert (not (= x03 x07)))
(assert (not (= x03 x08)))
(assert (not (= x04 (_ bv2 8))))
(assert (not (= x04 x06)))
(assert (not (= x04 x07)))
(assert (not (= x04 x08)))
(assert (not (= (_ bv2 8) x06)))
(assert (not (= (_ bv2 8) x07)))
(assert (not (= (_ bv2 8) x08)))
(assert (not (= x06 x07)))
(assert (not (= x06 x08)))
(assert (not (= x07 x08)))
(assert (not (= x10 (_ bv3 8))))
(assert (not (= x10 (_ bv1 8))))
(assert (not (= x10 x13)))
(assert (not (= x10 x14)))
(assert (not (= x10 x15)))
(assert (not (= x10 (_ bv2 8))))
(assert (not (= x10 x17)))
(assert (not (= x10 x18)))
(assert (not (= (_ bv3 8) (_ bv1 8))))
(assert (not (= (_ bv3 8) x13)))
(assert (not (= (_ bv3 8) x14)))
(assert (not (= (_ bv3 8) x15)))
(assert (not (= (_ bv3 8) (_ bv2 8))))
(assert (not (= (_ bv3 8) x17)))
(assert (not (= (_ bv3 8) x18)))
(assert (not (= (_ bv1 8) x13)))
(assert (not (= (_ bv1 8) x14)))
(assert (not (= (_ bv1 8) x15)))
(assert (not (= (_ bv1 8) (_ bv2 8))))
(assert (not (= (_ bv1 8) x17)))
(assert (not (= (_ bv1 8) x18)))
(assert (not (= x13 x14)))
(assert (not (= x13 x15)))
(assert (not (= x13 (_ bv2 8))))
(assert (not (= x13 x17)))
(assert (not (= x13 x18)))
(assert (not (= x14 x15)))
(assert (not (= x14 (_ bv2 8))))
(assert (not (= x14 x17)))
(assert (not (= x14 x18)))
(assert (not (= x15 (_ bv2 8))))
(assert (not (= x15 x17)))
(assert (not (= x15 x18)))
(assert (not (= (_ bv2 8) x17)))
(assert (not (= (_ bv2 8) x18)))
(assert (not (= x17 x18)))
(assert (not (= x20 (_ bv9 8))))
(assert (not (= x20 x22)))
(assert (not (= x20 x23)))
(assert (not (= x20 (_ bv3 8))))
(assert (not (= x20 (_ bv5 8))))
(assert (not (= x20 x26)))
(assert (not (= x20 (_ bv6 8))))
(assert (not (= x20 (_ bv4 8))))
(assert (not (= (_ bv9 8) x22)))
(assert (not (= (_ bv9 8) x23)))
(assert (not (= (_ bv9 8) (_ bv3 8))))
(assert (not (= (_ bv9 8) (_ bv5 8))))
(assert (not (= (_ bv9 8) x26)))
(assert (not (= (_ bv9 8) (_ bv6 8))))
(assert (not (= (_ bv9 8) (_ bv4 8))))
(assert (not (= x22 x23)))
(assert (not (= x22 (_ bv3 8))))
(assert (not (= x22 (_ bv5 8))))
(assert (not (= x22 x26)))
(assert (not (= x22 (_ bv6 8))))
(assert (not (= x22 (_ bv4 8))))
(assert (not (= x23 (_ bv3 8))))
(assert (not (= x23 (_ bv5 8))))
(assert (not (= x23 x26)))
(assert (not (= x23 (_ bv6 8))))
(assert (not (= x23 (_ bv4 8))))
(assert (not (= (_ bv3 8) (_ bv5 8))))
(assert (not (= (_ bv3 8) x26)))
(assert (not (= (_ bv3 8) (_ bv6 8))))
(assert (not (= (_ bv3 8) (_ bv4 8))))
(assert (not (= (_ bv5 8) x26)))
(assert (not (= (_ bv5 8) (_ bv6 8))))
(assert (not (= (_ bv5 8) (_ bv4 8))))
(assert (not (= x26 (_ bv6 8))))
(assert (not (= x26 (_ bv4 8))))
(assert (not (= (_ bv6 8) (_ bv4 8))))
(assert (not (= x30 (_ bv1 8))))
(assert (not (= x30 (_ bv3 8))))
(assert (not (= x30 x33)))
(assert (not (= x30 (_ bv8 8))))
(assert (not (= x30 x35)))
(assert (not (= x30 (_ bv5 8))))
(assert (not (= x30 x37)))
(assert (not (= x30 x38)))
(assert (not (= (_ bv1 8) (_ bv3 8))))
(assert (not (= (_ bv1 8) x33)))
(assert (not (= (_ bv1 8) (_ bv8 8))))
(assert (not (= (_ bv1 8) x35)))
(assert (not (= (_ bv1 8) (_ bv5 8))))
(assert (not (= (_ bv1 8) x37)))
(assert (not (= (_ bv1 8) x38)))
(assert (not (= (_ bv3 8) x33)))
(assert (not (= (_ bv3 8) (_ bv8 8))))
(assert (not (= (_ bv3 8) x35)))
(assert (not (= (_ bv3 8) (_ bv5 8))))
(assert (not (= (_ bv3 8) x37)))
(assert (not (= (_ bv3 8) x38)))
(assert (not (= x33 (_ bv8 8))))
(assert (not (= x33 x35)))
(assert (not (= x33 (_ bv5 8))))
(assert (not (= x33 x37)))
(assert (not (= x33 x38)))
(assert (not (= (_ bv8 8) x35)))
(assert (not (= (_ bv8 8) (_ bv5 8))))
(assert (not (= (_ bv8 8) x37)))
(assert (not (= (_ bv8 8) x38)))
(assert (not (= x35 (_ bv5 8))))
(assert (not (= x35 x37)))
(assert (not (= x35 x38)))
(assert (not (= (_ bv5 8) x37)))
(assert (not (= (_ bv5 8) x38)))
(assert (not (= x37 x38)))
(assert (not (= (_ bv7 8) x41)))
(assert (not (= (_ bv7 8) x42)))
(assert (not (= (_ bv7 8) x43)))
(assert (not (= (_ bv7 8) (_ bv6 8))))
(assert (not (= (_ bv7 8) x45)))
(assert (not (= (_ bv7 8) x46)))
(assert (not (= (_ bv7 8) (_ bv8 8))))
(assert (not (= (_ bv7 8) x48)))
(assert (not (= x41 x42)))
(assert (not (= x41 x43)))
(assert (not (= x41 (_ bv6 8))))
(assert (not (= x41 x45)))
(assert (not (= x41 x46)))
(assert (not (= x41 (_ bv8 8))))
(assert (not (= x41 x48)))
(assert (not (= x42 x43)))
(assert (not (= x42 (_ bv6 8))))
(assert (not (= x42 x45)))
(assert (not (= x42 x46)))
(assert (not (= x42 (_ bv8 8))))
(assert (not (= x42 x48)))
(assert (not (= x43 (_ bv6 8))))
(assert (not (= x43 x45)))
(assert (not (= x43 x46)))
(assert (not (= x43 (_ bv8 8))))
(assert (not (= x43 x48)))
(assert (not (= (_ bv6 8) x45)))
(assert (not (= (_ bv6 8) x46)))
(assert (not (= (_ bv6 8) (_ bv8 8))))
(assert (not (= (_ bv6 8) x48)))
(assert (not (= x45 x46)))
(assert (not (= x45 (_ bv8 8))))
(assert (not (= x45 x48)))
(assert (not (= x46 (_ bv8 8))))
(assert (not (= x46 x48)))
(assert (not (= (_ bv8 8) x48)))
(assert (not (= (_ bv4 8) (_ bv2 8))))
(assert (not (= (_ bv4 8) x52)))
(assert (not (= (_ bv4 8) x53)))
(assert (not (= (_ bv4 8) (_ bv1 8))))
(assert (not (= (_ bv4 8) (_ bv7 8))))
(assert (not (= (_ bv4 8) x56)))
(assert (not (= (_ bv4 8) (_ bv9 8))))
(assert (not (= (_ bv4 8) x58)))
(assert (not (= (_ bv2 8) x52)))
(assert (not (= (_ bv2 8) x53)))
(assert (not (= (_ bv2 8) (_ bv1 8))))
(assert (not (= (_ bv2 8) (_ bv7 8))))
(assert (not (= (_ bv2 8) x56)))
(assert (not (= (_ bv2 8) (_ bv9 8))))
(assert (not (= (_ bv2 8) x58)))
(assert (not (= x52 x53)))
(assert (not (= x52 (_ bv1 8))))
(assert (not (= x52 (_ bv7 8))))
(assert (not (= x52 x56)))
(assert (not (= x52 (_ bv9 8))))
(assert (not (= x52 x58)))
(assert (not (= x53 (_ bv1 8))))
(assert (not (= x53 (_ bv7 8))))
(assert (not (= x53 x56)))
(assert (not (= x53 (_ bv9 8))))
(assert (not (= x53 x58)))
(assert (not (= (_ bv1 8) (_ bv7 8))))
(assert (not (= (_ bv1 8) x56)))
(assert (not (= (_ bv1 8) (_ bv9 8))))
(assert (not (= (_ bv1 8) x58)))
(assert (not (= (_ bv7 8) x56)))
(assert (not (= (_ bv7 8) (_ bv9 8))))
(assert (not (= (_ bv7 8) x58)))
(assert (not (= x56 (_ bv9 8))))
(assert (not (= x56 x58)))
(assert (not (= (_ bv9 8) x58)))
(assert (not (= x60 x61)))
(assert (not (= x60 (_ bv5 8))))
(assert (not (= x60 x63)))
(assert (not (= x60 x64)))
(assert (not (= x60 (_ bv4 8))))
(assert (not (= x60 (_ bv1 8))))
(assert (not (= x60 x67)))
(assert (not (= x60 x68)))
(assert (not (= x61 (_ bv5 8))))
(assert (not (= x61 x63)))
(assert (not (= x61 x64)))
(assert (not (= x61 (_ bv4 8))))
(assert (not (= x61 (_ bv1 8))))
(assert (not (= x61 x67)))
(assert (not (= x61 x68)))
(assert (not (= (_ bv5 8) x63)))
(assert (not (= (_ bv5 8) x64)))
(assert (not (= (_ bv5 8) (_ bv4 8))))
(assert (not (= (_ bv5 8) (_ bv1 8))))
(assert (not (= (_ bv5 8) x67)))
(assert (not (= (_ bv5 8) x68)))
(assert (not (= x63 x64)))
(assert (not (= x63 (_ bv4 8))))
(assert (not (= x63 (_ bv1 8))))
(assert (not (= x63 x67)))
(assert (not (= x63 x68)))
(assert (not (= x64 (_ bv4 8))))
(assert (not (= x64 (_ bv1 8))))
(assert (not (= x64 x67)))
(assert (not (= x64 x68)))
(assert (not (= (_ bv4 8) (_ bv1 8))))
(assert (not (= (_ bv4 8) x67)))
(assert (not (= (_ bv4 8) x68)))
(assert (not (= (_ bv1 8) x67)))
(assert (not (= (_ bv1 8) x68)))
(assert (not (= x67 x68)))
(assert (not (= x70 (_ bv8 8))))
(assert (not (= x70 x72)))
(assert (not (= x70 (_ bv7 8))))
(assert (not (= x70 x74)))
(assert (not (= x70 x75)))
(assert (not (= x70 (_ bv9 8))))
(assert (not (= x70 x77)))
(assert (not (= x70 x78)))
(assert (not (= (_ bv8 8) x72)))
(assert (not (= (_ bv8 8) (_ bv7 8))))
(assert (not (= (_ bv8 8) x74)))
(assert (not (= (_ bv8 8) x75)))
(assert (not (= (_ bv8 8) (_ bv9 8))))
(assert (not (= (_ bv8 8) x77)))
(assert (not (= (_ bv8 8) x78)))
(assert (not (= x72 (_ bv7 8))))
(assert (not (= x72 x74)))
(assert (not (= x72 x75)))
(assert (not (= x72 (_ bv9 8))))
(assert (not (= x72 x77)))
(assert (not (= x72 x78)))
(assert (not (= (_ bv7 8) x74)))
(assert (not (= (_ bv7 8) x75)))
(assert (not (= (_ bv7 8) (_ bv9 8))))
(assert (not (= (_ bv7 8) x77)))
(assert (not (= (_ bv7 8) x78)))
(assert (not (= x74 x75)))
(assert (not (= x74 (_ bv9 8))))
(assert (not (= x74 x77)))
(assert (not (= x74 x78)))
(assert (not (= x75 (_ bv9 8))))
(assert (not (= x75 x77)))
(assert (not (= x75 x78)))
(assert (not (= (_ bv9 8) x77)))
(assert (not (= (_ bv9 8) x78)))
(assert (not (= x77 x78)))
(assert (not (= (_ bv1 8) (_ bv6 8))))
(assert (not (= (_ bv1 8) x82)))
(assert (not (= (_ bv1 8) (_ bv3 8))))
(assert (not (= (_ bv1 8) (_ bv9 8))))
(assert (not (= (_ bv1 8) x85)))
(assert (not (= (_ bv1 8) x86)))
(assert (not (= (_ bv1 8) x87)))
(assert (not (= (_ bv1 8) (_ bv2 8))))
(assert (not (= (_ bv6 8) x82)))
(assert (not (= (_ bv6 8) (_ bv3 8))))
(assert (not (= (_ bv6 8) (_ bv9 8))))
(assert (not (= (_ bv6 8) x85)))
(assert (not (= (_ bv6 8) x86)))
(assert (not (= (_ bv6 8) x87)))
(assert (not (= (_ bv6 8) (_ bv2 8))))
(assert (not (= x82 (_ bv3 8))))
(assert (not (= x82 (_ bv9 8))))
(assert (not (= x82 x85)))
(assert (not (= x82 x86)))
(assert (not (= x82 x87)))
(assert (not (= x82 (_ bv2 8))))
(assert (not (= (_ bv3 8) (_ bv9 8))))
(assert (not (= (_ bv3 8) x85)))
(assert (not (= (_ bv3 8) x86)))
(assert (not (= (_ bv3 8) x87)))
(assert (not (= (_ bv3 8) (_ bv2 8))))
(assert (not (= (_ bv9 8) x85)))
(assert (not (= (_ bv9 8) x86)))
(assert (not (= (_ bv9 8) x87)))
(assert (not (= (_ bv9 8) (_ bv2 8))))
(assert (not (= x85 x86)))
(assert (not (= x85 x87)))
(assert (not (= x85 (_ bv2 8))))
(assert (not (= x86 x87)))
(assert (not (= x86 (_ bv2 8))))
(assert (not (= x87 (_ bv2 8))))
(assert (not (= (_ bv8 8) x10)))
(assert (not (= (_ bv8 8) x20)))
(assert (not (= (_ bv8 8) x30)))
(assert (not (= (_ bv8 8) (_ bv7 8))))
(assert (not (= (_ bv8 8) (_ bv4 8))))
(assert (not (= (_ bv8 8) x60)))
(assert (not (= (_ bv8 8) x70)))
(assert (not (= (_ bv8 8) (_ bv1 8))))
(assert (not (= x10 x20)))
(assert (not (= x10 x30)))
(assert (not (= x10 (_ bv7 8))))
(assert (not (= x10 (_ bv4 8))))
(assert (not (= x10 x60)))
(assert (not (= x10 x70)))
(assert (not (= x10 (_ bv1 8))))
(assert (not (= x20 x30)))
(assert (not (= x20 (_ bv7 8))))
(assert (not (= x20 (_ bv4 8))))
(assert (not (= x20 x60)))
(assert (not (= x20 x70)))
(assert (not (= x20 (_ bv1 8))))
(assert (not (= x30 (_ bv7 8))))
(assert (not (= x30 (_ bv4 8))))
(assert (not (= x30 x60)))
(assert (not (= x30 x70)))
(assert (not (= x30 (_ bv1 8))))
(assert (not (= (_ bv7 8) (_ bv4 8))))
(assert (not (= (_ bv7 8) x60)))
(assert (not (= (_ bv7 8) x70)))
(assert (not (= (_ bv7 8) (_ bv1 8))))
(assert (not (= (_ bv4 8) x60)))
(assert (not (= (_ bv4 8) x70)))
(assert (not (= (_ bv4 8) (_ bv1 8))))
(assert (not (= x60 x70)))
(assert (not (= x60 (_ bv1 8))))
(assert (not (= x70 (_ bv1 8))))
(assert (not (= x01 (_ bv3 8))))
(assert (not (= x01 (_ bv9 8))))
(assert (not (= x01 (_ bv1 8))))
(assert (not (= x01 x41)))
(assert (not (= x01 (_ bv2 8))))
(assert (not (= x01 x61)))
(assert (not (= x01 (_ bv8 8))))
(assert (not (= x01 (_ bv6 8))))
(assert (not (= (_ bv3 8) (_ bv9 8))))
(assert (not (= (_ bv3 8) (_ bv1 8))))
(assert (not (= (_ bv3 8) x41)))
(assert (not (= (_ bv3 8) (_ bv2 8))))
(assert (not (= (_ bv3 8) x61)))
(assert (not (= (_ bv3 8) (_ bv8 8))))
(assert (not (= (_ bv3 8) (_ bv6 8))))
(assert (not (= (_ bv9 8) (_ bv1 8))))
(assert (not (= (_ bv9 8) x41)))
(assert (not (= (_ bv9 8) (_ bv2 8))))
(assert (not (= (_ bv9 8) x61)))
(assert (not (= (_ bv9 8) (_ bv8 8))))
(assert (not (= (_ bv9 8) (_ bv6 8))))
(assert (not (= (_ bv1 8) x41)))
(assert (not (= (_ bv1 8) (_ bv2 8))))
(assert (not (= (_ bv1 8) x61)))
(assert (not (= (_ bv1 8) (_ bv8 8))))
(assert (not (= (_ bv1 8) (_ bv6 8))))
(assert (not (= x41 (_ bv2 8))))
(assert (not (= x41 x61)))
(assert (not (= x41 (_ bv8 8))))
(assert (not (= x41 (_ bv6 8))))
(assert (not (= (_ bv2 8) x61)))
(assert (not (= (_ bv2 8) (_ bv8 8))))
(assert (not (= (_ bv2 8) (_ bv6 8))))
(assert (not (= x61 (_ bv8 8))))
(assert (not (= x61 (_ bv6 8))))
(assert (not (= (_ bv8 8) (_ bv6 8))))
(assert (not (= x02 (_ bv1 8))))
(assert (not (= x02 x22)))
(assert (not (= x02 (_ bv3 8))))
(assert (not (= x02 x42)))
(assert (not (= x02 x52)))
(assert (not (= x02 (_ bv5 8))))
(assert (not (= x02 x72)))
(assert (not (= x02 x82)))
(assert (not (= (_ bv1 8) x22)))
(assert (not (= (_ bv1 8) (_ bv3 8))))
(assert (not (= (_ bv1 8) x42)))
(assert (not (= (_ bv1 8) x52)))
(assert (not (= (_ bv1 8) (_ bv5 8))))
(assert (not (= (_ bv1 8) x72)))
(assert (not (= (_ bv1 8) x82)))
(assert (not (= x22 (_ bv3 8))))
(assert (not (= x22 x42)))
(assert (not (= x22 x52)))
(assert (not (= x22 (_ bv5 8))))
(assert (not (= x22 x72)))
(assert (not (= x22 x82)))
(assert (not (= (_ bv3 8) x42)))
(assert (not (= (_ bv3 8) x52)))
(assert (not (= (_ bv3 8) (_ bv5 8))))
(assert (not (= (_ bv3 8) x72)))
(assert (not (= (_ bv3 8) x82)))
(assert (not (= x42 x52)))
(assert (not (= x42 (_ bv5 8))))
(assert (not (= x42 x72)))
(assert (not (= x42 x82)))
(assert (not (= x52 (_ bv5 8))))
(assert (not (= x52 x72)))
(assert (not (= x52 x82)))
(assert (not (= (_ bv5 8) x72)))
(assert (not (= (_ bv5 8) x82)))
(assert (not (= x72 x82)))
(assert (not (= x03 x13)))
(assert (not (= x03 x23)))
(assert (not (= x03 x33)))
(assert (not (= x03 x43)))
(assert (not (= x03 x53)))
(assert (not (= x03 x63)))
(assert (not (= x03 (_ bv7 8))))
(assert (not (= x03 (_ bv3 8))))
(assert (not (= x13 x23)))
(assert (not (= x13 x33)))
(assert (not (= x13 x43)))
(assert (not (= x13 x53)))
(assert (not (= x13 x63)))
(assert (not (= x13 (_ bv7 8))))
(assert (not (= x13 (_ bv3 8))))
(assert (not (= x23 x33)))
(assert (not (= x23 x43)))
(assert (not (= x23 x53)))
(assert (not (= x23 x63)))
(assert (not (= x23 (_ bv7 8))))
(assert (not (= x23 (_ bv3 8))))
(assert (not (= x33 x43)))
(assert (not (= x33 x53)))
(assert (not (= x33 x63)))
(assert (not (= x33 (_ bv7 8))))
(assert (not (= x33 (_ bv3 8))))
(assert (not (= x43 x53)))
(assert (not (= x43 x63)))
(assert (not (= x43 (_ bv7 8))))
(assert (not (= x43 (_ bv3 8))))
(assert (not (= x53 x63)))
(assert (not (= x53 (_ bv7 8))))
(assert (not (= x53 (_ bv3 8))))
(assert (not (= x63 (_ bv7 8))))
(assert (not (= x63 (_ bv3 8))))
(assert (not (= (_ bv7 8) (_ bv3 8))))
(assert (not (= x04 x14)))
(assert (not (= x04 (_ bv3 8))))
(assert (not (= x04 (_ bv8 8))))
(assert (not (= x04 (_ bv6 8))))
(assert (not (= x04 (_ bv1 8))))
(assert (not (= x04 x64)))
(assert (not (= x04 x74)))
(assert (not (= x04 (_ bv9 8))))
(assert (not (= x14 (_ bv3 8))))
(assert (not (= x14 (_ bv8 8))))
(assert (not (= x14 (_ bv6 8))))
(assert (not (= x14 (_ bv1 8))))
(assert (not (= x14 x64)))
(assert (not (= x14 x74)))
(assert (not (= x14 (_ bv9 8))))
(assert (not (= (_ bv3 8) (_ bv8 8))))
(assert (not (= (_ bv3 8) (_ bv6 8))))
(assert (not (= (_ bv3 8) (_ bv1 8))))
(assert (not (= (_ bv3 8) x64)))
(assert (not (= (_ bv3 8) x74)))
(assert (not (= (_ bv3 8) (_ bv9 8))))
(assert (not (= (_ bv8 8) (_ bv6 8))))
(assert (not (= (_ bv8 8) (_ bv1 8))))
(assert (not (= (_ bv8 8) x64)))
(assert (not (= (_ bv8 8) x74)))
(assert (not (= (_ bv8 8) (_ bv9 8))))
(assert (not (= (_ bv6 8) (_ bv1 8))))
(assert (not (= (_ bv6 8) x64)))
(assert (not (= (_ bv6 8) x74)))
(assert (not (= (_ bv6 8) (_ bv9 8))))
(assert (not (= (_ bv1 8) x64)))
(assert (not (= (_ bv1 8) x74)))
(assert (not (= (_ bv1 8) (_ bv9 8))))
(assert (not (= x64 x74)))
(assert (not (= x64 (_ bv9 8))))
(assert (not (= x74 (_ bv9 8))))
(assert (not (= (_ bv2 8) x15)))
(assert (not (= (_ bv2 8) (_ bv5 8))))
(assert (not (= (_ bv2 8) x35)))
(assert (not (= (_ bv2 8) x45)))
(assert (not (= (_ bv2 8) (_ bv7 8))))
(assert (not (= (_ bv2 8) (_ bv4 8))))
(assert (not (= (_ bv2 8) x75)))
(assert (not (= (_ bv2 8) x85)))
(assert (not (= x15 (_ bv5 8))))
(assert (not (= x15 x35)))
(assert (not (= x15 x45)))
(assert (not (= x15 (_ bv7 8))))
(assert (not (= x15 (_ bv4 8))))
(assert (not (= x15 x75)))
(assert (not (= x15 x85)))
(assert (not (= (_ bv5 8) x35)))
(assert (not (= (_ bv5 8) x45)))
(assert (not (= (_ bv5 8) (_ bv7 8))))
(assert (not (= (_ bv5 8) (_ bv4 8))))
(assert (not (= (_ bv5 8) x75)))
(assert (not (= (_ bv5 8) x85)))
(assert (not (= x35 x45)))
(assert (not (= x35 (_ bv7 8))))
(assert (not (= x35 (_ bv4 8))))
(assert (not (= x35 x75)))
(assert (not (= x35 x85)))
(assert (not (= x45 (_ bv7 8))))
(assert (not (= x45 (_ bv4 8))))
(assert (not (= x45 x75)))
(assert (not (= x45 x85)))
(assert (not (= (_ bv7 8) (_ bv4 8))))
(assert (not (= (_ bv7 8) x75)))
(assert (not (= (_ bv7 8) x85)))
(assert (not (= (_ bv4 8) x75)))
(assert (not (= (_ bv4 8) x85)))
(assert (not (= x75 x85)))
(assert (not (= x06 (_ bv2 8))))
(assert (not (= x06 x26)))
(assert (not (= x06 (_ bv5 8))))
(assert (not (= x06 x46)))
(assert (not (= x06 x56)))
(assert (not (= x06 (_ bv1 8))))
(assert (not (= x06 (_ bv9 8))))
(assert (not (= x06 x86)))
(assert (not (= (_ bv2 8) x26)))
(assert (not (= (_ bv2 8) (_ bv5 8))))
(assert (not (= (_ bv2 8) x46)))
(assert (not (= (_ bv2 8) x56)))
(assert (not (= (_ bv2 8) (_ bv1 8))))
(assert (not (= (_ bv2 8) (_ bv9 8))))
(assert (not (= (_ bv2 8) x86)))
(assert (not (= x26 (_ bv5 8))))
(assert (not (= x26 x46)))
(assert (not (= x26 x56)))
(assert (not (= x26 (_ bv1 8))))
(assert (not (= x26 (_ bv9 8))))
(assert (not (= x26 x86)))
(assert (not (= (_ bv5 8) x46)))
(assert (not (= (_ bv5 8) x56)))
(assert (not (= (_ bv5 8) (_ bv1 8))))
(assert (not (= (_ bv5 8) (_ bv9 8))))
(assert (not (= (_ bv5 8) x86)))
(assert (not (= x46 x56)))
(assert (not (= x46 (_ bv1 8))))
(assert (not (= x46 (_ bv9 8))))
(assert (not (= x46 x86)))
(assert (not (= x56 (_ bv1 8))))
(assert (not (= x56 (_ bv9 8))))
(assert (not (= x56 x86)))
(assert (not (= (_ bv1 8) (_ bv9 8))))
(assert (not (= (_ bv1 8) x86)))
(assert (not (= (_ bv9 8) x86)))
(assert (not (= x07 x17)))
(assert (not (= x07 (_ bv6 8))))
(assert (not (= x07 x37)))
(assert (not (= x07 (_ bv8 8))))
(assert (not (= x07 (_ bv9 8))))
(assert (not (= x07 x67)))
(assert (not (= x07 x77)))
(assert (not (= x07 x87)))
(assert (not (= x17 (_ bv6 8))))
(assert (not (= x17 x37)))
(assert (not (= x17 (_ bv8 8))))
(assert (not (= x17 (_ bv9 8))))
(assert (not (= x17 x67)))
(assert (not (= x17 x77)))
(assert (not (= x17 x87)))
(assert (not (= (_ bv6 8) x37)))
(assert (not (= (_ bv6 8) (_ bv8 8))))
(assert (not (= (_ bv6 8) (_ bv9 8))))
(assert (not (= (_ bv6 8) x67)))
(assert (not (= (_ bv6 8) x77)))
(assert (not (= (_ bv6 8) x87)))
(assert (not (= x37 (_ bv8 8))))
(assert (not (= x37 (_ bv9 8))))
(assert (not (= x37 x67)))
(assert (not (= x37 x77)))
(assert (not (= x37 x87)))
(assert (not (= (_ bv8 8) (_ bv9 8))))
(assert (not (= (_ bv8 8) x67)))
(assert (not (= (_ bv8 8) x77)))
(assert (not (= (_ bv8 8) x87)))
(assert (not (= (_ bv9 8) x67)))
(assert (not (= (_ bv9 8) x77)))
(assert (not (= (_ bv9 8) x87)))
(assert (not (= x67 x77)))
(assert (not (= x67 x87)))
(assert (not (= x77 x87)))
(assert (not (= x08 x18)))
(assert (not (= x08 (_ bv4 8))))
(assert (not (= x08 x38)))
(assert (not (= x08 x48)))
(assert (not (= x08 x58)))
(assert (not (= x08 x68)))
(assert (not (= x08 x78)))
(assert (not (= x08 (_ bv2 8))))
(assert (not (= x18 (_ bv4 8))))
(assert (not (= x18 x38)))
(assert (not (= x18 x48)))
(assert (not (= x18 x58)))
(assert (not (= x18 x68)))
(assert (not (= x18 x78)))
(assert (not (= x18 (_ bv2 8))))
(assert (not (= (_ bv4 8) x38)))
(assert (not (= (_ bv4 8) x48)))
(assert (not (= (_ bv4 8) x58)))
(assert (not (= (_ bv4 8) x68)))
(assert (not (= (_ bv4 8) x78)))
(assert (not (= (_ bv4 8) (_ bv2 8))))
(assert (not (= x38 x48)))
(assert (not (= x38 x58)))
(assert (not (= x38 x68)))
(assert (not (= x38 x78)))
(assert (not (= x38 (_ bv2 8))))
(assert (not (= x48 x58)))
(assert (not (= x48 x68)))
(assert (not (= x48 x78)))
(assert (not (= x48 (_ bv2 8))))
(assert (not (= x58 x68)))
(assert (not (= x58 x78)))
(assert (not (= x58 (_ bv2 8))))
(assert (not (= x68 x78)))
(assert (not (= x68 (_ bv2 8))))
(assert (not (= x78 (_ bv2 8))))
(assert (not (= (_ bv8 8) x01)))
(assert (not (= (_ bv8 8) x02)))
(assert (not (= (_ bv8 8) x10)))
(assert (not (= (_ bv8 8) (_ bv3 8))))
(assert (not (= (_ bv8 8) (_ bv1 8))))
(assert (not (= (_ bv8 8) x20)))
(assert (not (= (_ bv8 8) (_ bv9 8))))
(assert (not (= (_ bv8 8) x22)))
(assert (not (= x01 x02)))
(assert (not (= x01 x10)))
(assert (not (= x01 (_ bv3 8))))
(assert (not (= x01 (_ bv1 8))))
(assert (not (= x01 x20)))
(assert (not (= x01 (_ bv9 8))))
(assert (not (= x01 x22)))
(assert (not (= x02 x10)))
(assert (not (= x02 (_ bv3 8))))
(assert (not (= x02 (_ bv1 8))))
(assert (not (= x02 x20)))
(assert (not (= x02 (_ bv9 8))))
(assert (not (= x02 x22)))
(assert (not (= x10 (_ bv3 8))))
(assert (not (= x10 (_ bv1 8))))
(assert (not (= x10 x20)))
(assert (not (= x10 (_ bv9 8))))
(assert (not (= x10 x22)))
(assert (not (= (_ bv3 8) (_ bv1 8))))
(assert (not (= (_ bv3 8) x20)))
(assert (not (= (_ bv3 8) (_ bv9 8))))
(assert (not (= (_ bv3 8) x22)))
(assert (not (= (_ bv1 8) x20)))
(assert (not (= (_ bv1 8) (_ bv9 8))))
(assert (not (= (_ bv1 8) x22)))
(assert (not (= x20 (_ bv9 8))))
(assert (not (= x20 x22)))
(assert (not (= (_ bv9 8) x22)))
(assert (not (= x03 x04)))
(assert (not (= x03 (_ bv2 8))))
(assert (not (= x03 x13)))
(assert (not (= x03 x14)))
(assert (not (= x03 x15)))
(assert (not (= x03 x23)))
(assert (not (= x03 (_ bv3 8))))
(assert (not (= x03 (_ bv5 8))))
(assert (not (= x04 (_ bv2 8))))
(assert (not (= x04 x13)))
(assert (not (= x04 x14)))
(assert (not (= x04 x15)))
(assert (not (= x04 x23)))
(assert (not (= x04 (_ bv3 8))))
(assert (not (= x04 (_ bv5 8))))
(assert (not (= (_ bv2 8) x13)))
(assert (not (= (_ bv2 8) x14)))
(assert (not (= (_ bv2 8) x15)))
(assert (not (= (_ bv2 8) x23)))
(assert (not (= (_ bv2 8) (_ bv3 8))))
(assert (not (= (_ bv2 8) (_ bv5 8))))
(assert (not (= x13 x14)))
(assert (not (= x13 x15)))
(assert (not (= x13 x23)))
(assert (not (= x13 (_ bv3 8))))
(assert (not (= x13 (_ bv5 8))))
(assert (not (= x14 x15)))
(assert (not (= x14 x23)))
(assert (not (= x14 (_ bv3 8))))
(assert (not (= x14 (_ bv5 8))))
(assert (not (= x15 x23)))
(assert (not (= x15 (_ bv3 8))))
(assert (not (= x15 (_ bv5 8))))
(assert (not (= x23 (_ bv3 8))))
(assert (not (= x23 (_ bv5 8))))
(assert (not (= (_ bv3 8) (_ bv5 8))))
(assert (not (= x06 x07)))
(assert (not (= x06 x08)))
(assert (not (= x06 (_ bv2 8))))
(assert (not (= x06 x17)))
(assert (not (= x06 x18)))
(assert (not (= x06 x26)))
(assert (not (= x06 (_ bv6 8))))
(assert (not (= x06 (_ bv4 8))))
(assert (not (= x07 x08)))
(assert (not (= x07 (_ bv2 8))))
(assert (not (= x07 x17)))
(assert (not (= x07 x18)))
(assert (not (= x07 x26)))
(assert (not (= x07 (_ bv6 8))))
(assert (not (= x07 (_ bv4 8))))
(assert (not (= x08 (_ bv2 8))))
(assert (not (= x08 x17)))
(assert (not (= x08 x18)))
(assert (not (= x08 x26)))
(assert (not (= x08 (_ bv6 8))))
(assert (not (= x08 (_ bv4 8))))
(assert (not (= (_ bv2 8) x17)))
(assert (not (= (_ bv2 8) x18)))
(assert (not (= (_ bv2 8) x26)))
(assert (not (= (_ bv2 8) (_ bv6 8))))
(assert (not (= (_ bv2 8) (_ bv4 8))))
(assert (not (= x17 x18)))
(assert (not (= x17 x26)))
(assert (not (= x17 (_ bv6 8))))
(assert (not (= x17 (_ bv4 8))))
(assert (not (= x18 x26)))
(assert (not (= x18 (_ bv6 8))))
(assert (not (= x18 (_ bv4 8))))
(assert (not (= x26 (_ bv6 8))))
(assert (not (= x26 (_ bv4 8))))
(assert (not (= (_ bv6 8) (_ bv4 8))))
(assert (not (= x30 (_ bv1 8))))
(assert (not (= x30 (_ bv3 8))))
(assert (not (= x30 (_ bv7 8))))
(assert (not (= x30 x41)))
(assert (not (= x30 x42)))
(assert (not (= x30 (_ bv4 8))))
(assert (not (= x30 (_ bv2 8))))
(assert (not (= x30 x52)))
(assert (not (= (_ bv1 8) (_ bv3 8))))
(assert (not (= (_ bv1 8) (_ bv7 8))))
(assert (not (= (_ bv1 8) x41)))
(assert (not (= (_ bv1 8) x42)))
(assert (not (= (_ bv1 8) (_ bv4 8))))
(assert (not (= (_ bv1 8) (_ bv2 8))))
(assert (not (= (_ bv1 8) x52)))
(assert (not (= (_ bv3 8) (_ bv7 8))))
(assert (not (= (_ bv3 8) x41)))
(assert (not (= (_ bv3 8) x42)))
(assert (not (= (_ bv3 8) (_ bv4 8))))
(assert (not (= (_ bv3 8) (_ bv2 8))))
(assert (not (= (_ bv3 8) x52)))
(assert (not (= (_ bv7 8) x41)))
(assert (not (= (_ bv7 8) x42)))
(assert (not (= (_ bv7 8) (_ bv4 8))))
(assert (not (= (_ bv7 8) (_ bv2 8))))
(assert (not (= (_ bv7 8) x52)))
(assert (not (= x41 x42)))
(assert (not (= x41 (_ bv4 8))))
(assert (not (= x41 (_ bv2 8))))
(assert (not (= x41 x52)))
(assert (not (= x42 (_ bv4 8))))
(assert (not (= x42 (_ bv2 8))))
(assert (not (= x42 x52)))
(assert (not (= (_ bv4 8) (_ bv2 8))))
(assert (not (= (_ bv4 8) x52)))
(assert (not (= (_ bv2 8) x52)))
(assert (not (= x33 (_ bv8 8))))
(assert (not (= x33 x35)))
(assert (not (= x33 x43)))
(assert (not (= x33 (_ bv6 8))))
(assert (not (= x33 x45)))
(assert (not (= x33 x53)))
(assert (not (= x33 (_ bv1 8))))
(assert (not (= x33 (_ bv7 8))))
(assert (not (= (_ bv8 8) x35)))
(assert (not (= (_ bv8 8) x43)))
(assert (not (= (_ bv8 8) (_ bv6 8))))
(assert (not (= (_ bv8 8) x45)))
(assert (not (= (_ bv8 8) x53)))
(assert (not (= (_ bv8 8) (_ bv1 8))))
(assert (not (= (_ bv8 8) (_ bv7 8))))
(assert (not (= x35 x43)))
(assert (not (= x35 (_ bv6 8))))
(assert (not (= x35 x45)))
(assert (not (= x35 x53)))
(assert (not (= x35 (_ bv1 8))))
(assert (not (= x35 (_ bv7 8))))
(assert (not (= x43 (_ bv6 8))))
(assert (not (= x43 x45)))
(assert (not (= x43 x53)))
(assert (not (= x43 (_ bv1 8))))
(assert (not (= x43 (_ bv7 8))))
(assert (not (= (_ bv6 8) x45)))
(assert (not (= (_ bv6 8) x53)))
(assert (not (= (_ bv6 8) (_ bv1 8))))
(assert (not (= (_ bv6 8) (_ bv7 8))))
(assert (not (= x45 x53)))
(assert (not (= x45 (_ bv1 8))))
(assert (not (= x45 (_ bv7 8))))
(assert (not (= x53 (_ bv1 8))))
(assert (not (= x53 (_ bv7 8))))
(assert (not (= (_ bv1 8) (_ bv7 8))))
(assert (not (= (_ bv5 8) x37)))
(assert (not (= (_ bv5 8) x38)))
(assert (not (= (_ bv5 8) x46)))
(assert (not (= (_ bv5 8) (_ bv8 8))))
(assert (not (= (_ bv5 8) x48)))
(assert (not (= (_ bv5 8) x56)))
(assert (not (= (_ bv5 8) (_ bv9 8))))
(assert (not (= (_ bv5 8) x58)))
(assert (not (= x37 x38)))
(assert (not (= x37 x46)))
(assert (not (= x37 (_ bv8 8))))
(assert (not (= x37 x48)))
(assert (not (= x37 x56)))
(assert (not (= x37 (_ bv9 8))))
(assert (not (= x37 x58)))
(assert (not (= x38 x46)))
(assert (not (= x38 (_ bv8 8))))
(assert (not (= x38 x48)))
(assert (not (= x38 x56)))
(assert (not (= x38 (_ bv9 8))))
(assert (not (= x38 x58)))
(assert (not (= x46 (_ bv8 8))))
(assert (not (= x46 x48)))
(assert (not (= x46 x56)))
(assert (not (= x46 (_ bv9 8))))
(assert (not (= x46 x58)))
(assert (not (= (_ bv8 8) x48)))
(assert (not (= (_ bv8 8) x56)))
(assert (not (= (_ bv8 8) (_ bv9 8))))
(assert (not (= (_ bv8 8) x58)))
(assert (not (= x48 x56)))
(assert (not (= x48 (_ bv9 8))))
(assert (not (= x48 x58)))
(assert (not (= x56 (_ bv9 8))))
(assert (not (= x56 x58)))
(assert (not (= (_ bv9 8) x58)))
(assert (not (= x60 x61)))
(assert (not (= x60 (_ bv5 8))))
(assert (not (= x60 x70)))
(assert (not (= x60 (_ bv8 8))))
(assert (not (= x60 x72)))
(assert (not (= x60 (_ bv1 8))))
(assert (not (= x60 (_ bv6 8))))
(assert (not (= x60 x82)))
(assert (not (= x61 (_ bv5 8))))
(assert (not (= x61 x70)))
(assert (not (= x61 (_ bv8 8))))
(assert (not (= x61 x72)))
(assert (not (= x61 (_ bv1 8))))
(assert (not (= x61 (_ bv6 8))))
(assert (not (= x61 x82)))
(assert (not (= (_ bv5 8) x70)))
(assert (not (= (_ bv5 8) (_ bv8 8))))
(assert (not (= (_ bv5 8) x72)))
(assert (not (= (_ bv5 8) (_ bv1 8))))
(assert (not (= (_ bv5 8) (_ bv6 8))))
(assert (not (= (_ bv5 8) x82)))
(assert (not (= x70 (_ bv8 8))))
(assert (not (= x70 x72)))
(assert (not (= x70 (_ bv1 8))))
(assert (not (= x70 (_ bv6 8))))
(assert (not (= x70 x82)))
(assert (not (= (_ bv8 8) x72)))
(assert (not (= (_ bv8 8) (_ bv1 8))))
(assert (not (= (_ bv8 8) (_ bv6 8))))
(assert (not (= (_ bv8 8) x82)))
(assert (not (= x72 (_ bv1 8))))
(assert (not (= x72 (_ bv6 8))))
(assert (not (= x72 x82)))
(assert (not (= (_ bv1 8) (_ bv6 8))))
(assert (not (= (_ bv1 8) x82)))
(assert (not (= (_ bv6 8) x82)))
(assert (not (= x63 x64)))
(assert (not (= x63 (_ bv4 8))))
(assert (not (= x63 (_ bv7 8))))
(assert (not (= x63 x74)))
(assert (not (= x63 x75)))
(assert (not (= x63 (_ bv3 8))))
(assert (not (= x63 (_ bv9 8))))
(assert (not (= x63 x85)))
(assert (not (= x64 (_ bv4 8))))
(assert (not (= x64 (_ bv7 8))))
(assert (not (= x64 x74)))
(assert (not (= x64 x75)))
(assert (not (= x64 (_ bv3 8))))
(assert (not (= x64 (_ bv9 8))))
(assert (not (= x64 x85)))
(assert (not (= (_ bv4 8) (_ bv7 8))))
(assert (not (= (_ bv4 8) x74)))
(assert (not (= (_ bv4 8) x75)))
(assert (not (= (_ bv4 8) (_ bv3 8))))
(assert (not (= (_ bv4 8) (_ bv9 8))))
(assert (not (= (_ bv4 8) x85)))
(assert (not (= (_ bv7 8) x74)))
(assert (not (= (_ bv7 8) x75)))
(assert (not (= (_ bv7 8) (_ bv3 8))))
(assert (not (= (_ bv7 8) (_ bv9 8))))
(assert (not (= (_ bv7 8) x85)))
(assert (not (= x74 x75)))
(assert (not (= x74 (_ bv3 8))))
(assert (not (= x74 (_ bv9 8))))
(assert (not (= x74 x85)))
(assert (not (= x75 (_ bv3 8))))
(assert (not (= x75 (_ bv9 8))))
(assert (not (= x75 x85)))
(assert (not (= (_ bv3 8) (_ bv9 8))))
(assert (not (= (_ bv3 8) x85)))
(assert (not (= (_ bv9 8) x85)))
(assert (not (= (_ bv1 8) x67)))
(assert (not (= (_ bv1 8) x68)))
(assert (not (= (_ bv1 8) (_ bv9 8))))
(assert (not (= (_ bv1 8) x77)))
(assert (not (= (_ bv1 8) x78)))
(assert (not (= (_ bv1 8) x86)))
(assert (not (= (_ bv1 8) x87)))
(assert (not (= (_ bv1 8) (_ bv2 8))))
(assert (not (= x67 x68)))
(assert (not (= x67 (_ bv9 8))))
(assert (not (= x67 x77)))
(assert (not (= x67 x78)))
(assert (not (= x67 x86)))
(assert (not (= x67 x87)))
(assert (not (= x67 (_ bv2 8))))
(assert (not (= x68 (_ bv9 8))))
(assert (not (= x68 x77)))
(assert (not (= x68 x78)))
(assert (not (= x68 x86)))
(assert (not (= x68 x87)))
(assert (not (= x68 (_ bv2 8))))
(assert (not (= (_ bv9 8) x77)))
(assert (not (= (_ bv9 8) x78)))
(assert (not (= (_ bv9 8) x86)))
(assert (not (= (_ bv9 8) x87)))
(assert (not (= (_ bv9 8) (_ bv2 8))))
(assert (not (= x77 x78)))
(assert (not (= x77 x86)))
(assert (not (= x77 x87)))
(assert (not (= x77 (_ bv2 8))))
(assert (not (= x78 x86)))
(assert (not (= x78 x87)))
(assert (not (= x78 (_ bv2 8))))
(assert (not (= x86 x87)))
(assert (not (= x86 (_ bv2 8))))
(assert (not (= x87 (_ bv2 8))))
(check-sat)
(exit)
